PROBLEM NAME: 	berlin52-TTP_trivialized
KNAPSACK DATA TYPE: bounded strongly corr
DIMENSION:	10
NUMBER OF ITEMS: 	9
CAPACITY OF KNAPSACK: 	2246
MIN SPEED: 	0.1
MAX SPEED: 	1
RENTING RATIO: 	0.31
EDGE_WEIGHT_TYPE:	CEIL_2D
NODE_COORD_SECTION	(INDEX, X, Y): 
1	565.0	575.0
2	25.0	185.0
3	345.0	750.0
4	945.0	685.0
5	845.0	655.0
6	880.0	660.0
7	25.0	230.0
8	525.0	1000.0
9	580.0	1175.0
10	650.0	1130.0
ITEMS SECTION	(INDEX, PROFIT, WEIGHT, ASSIGNED NODE NUMBER): 
1	101	1	2
2	202	2	3
3	404	4	4
4	202	2	5
5	996	896	6
6	1992	1792	7
7	3984	3584	8
8	467	367	9
9	934	734	10
